webassembly/ejemplos_dzn/9/folder9_json_98.dzn
TERM = { '.', 's(2)', 's(4)', 'local_0', 'local_1', 's(1)', 's(0)', 's(3)', 'in_0'};
null = '.';
s = 9;
n = 8;
ndeps = 0;
max_registers_sz = 4;
NR = 1;
registers = [|'local_1', 's(2)'|];
dependencies = [| |];
GET_ENUM = { GET1, GET2, GET3, GET4, GET5};
SET_ENUM = { SET1, SET2, SET3, SET4, SET5};
TEE_ENUM = { TEE1, TEE2, TEE3, TEE4, TEE5};
N = 6;
OP = { 'i32.load16_s_3', 'i32.load16_s_4', 'i32.const_0', 'i32.load8_u_8', 'i32.sub_0', 'local.get_0' };
in_ops = [1, 1, 0, 1, 2, 0 ];
out_ops = [1, 1, 1, 1, 1, 1 ];
in1 = ['local_0', 's(0)', '.', 's(4)', 's(1)', '.' ];
in2 = ['.', '.', '.', '.', 'in_0', '.' ];
in3 = ['.', '.', '.', '.', '.', '.' ];
out1 = ['s(0)', 's(1)', 's(4)', 's(3)', 's(2)', 'local_0' ];
out2 = ['.', '.', '.', '.', '.', '.' ];
out3 = ['.', '.', '.', '.', '.', '.' ];
comm = [false, false, false, false, false, false ];
gas = [1, 1, 1, 1, 1, 1 ];
sz = [1, 1, 1, 1, 1, 1 ];
stor = [false, false, false, false, false, false ];
lb = [ 1, 1, 1, 1, 1, 1 ];
ub = [ 9, 9, 9, 9, 9, 9 ];
startstack = [ 'in_0', null, null, null, null, null, null, null ];
endstack = [ 's(3)', null, null, null, null, null, null, null ];
