webassembly/ejemplos_results/9/folder9_json_98.txt
value = 9;
fgas = [1, 2, 1, 1, 1, 1, 1, 1, 2];
fsize = [1, 1, 1, 1, 1, 1, 1, 1, 1];
states = 
[|    in_0,    '.', '.', '.', '.', '.', '.', '.'
 |  's(4)', 's(0)', '.', '.', '.', '.', '.', '.'
 |  's(0)',    '.', '.', '.', '.', '.', '.', '.'
 |  's(1)',   in_0, '.', '.', '.', '.', '.', '.'
 |  's(2)', 's(4)', '.', '.', '.', '.', '.', '.'
 |  's(4)',    '.', '.', '.', '.', '.', '.', '.'
 |  's(3)',    '.', '.', '.', '.', '.', '.', '.'
 | local_0,   in_0, '.', '.', '.', '.', '.', '.'
 |  's(0)', 's(3)', '.', '.', '.', '.', '.', '.'
 |  's(3)',    '.', '.', '.', '.', '.', '.', '.'
 |];
register_states = 
[| local_1, '.', '.', '.', '.'
 | local_1, '.', '.', '.', '.'
 | local_1, '.', '.', '.', '.'
 | local_1, '.', '.', '.', '.'
 | local_1, '.', '.', '.', '.'
 |  's(2)', '.', '.', '.', '.'
 |  's(2)', '.', '.', '.', '.'
 |  's(2)', '.', '.', '.', '.'
 |  's(2)', '.', '.', '.', '.'
 |  's(2)', '.', '.', '.', '.'
 |];
program = [O('i32.const_0'), POP, O('i32.load16_s_4'), O('i32.sub_0'), S(SET1), O('i32.load8_u_8'), O('local.get_0'), O('i32.load16_s_3'), POP];
% time elapsed: 0.08 s
----------
value = 8;
fgas = [1, 1, 1, 1, 1, 1, 1, 1, 0];
fsize = [1, 1, 1, 1, 1, 1, 1, 1, 1];
states = 
[|    in_0,    '.',  '.', '.', '.', '.', '.', '.'
 | local_0, 's(2)',  '.', '.', '.', '.', '.', '.'
 |  's(0)',   in_0,  '.', '.', '.', '.', '.', '.'
 |  's(1)',   in_0,  '.', '.', '.', '.', '.', '.'
 |  's(4)',   in_0, in_0, '.', '.', '.', '.', '.'
 |  's(3)', 's(1)', in_0, '.', '.', '.', '.', '.'
 |  's(1)',   in_0,  '.', '.', '.', '.', '.', '.'
 |  's(2)', 's(3)',  '.', '.', '.', '.', '.', '.'
 |  's(3)',    '.',  '.', '.', '.', '.', '.', '.'
 |  's(3)',    '.',  '.', '.', '.', '.', '.', '.'
 |];
register_states = 
[| local_1, '.', '.', '.', '.'
 | local_1, '.', '.', '.', '.'
 | local_1, '.', '.', '.', '.'
 | local_1, '.', '.', '.', '.'
 | local_1, '.', '.', '.', '.'
 | local_1, '.', '.', '.', '.'
 |  's(3)', '.', '.', '.', '.'
 |  's(3)', '.', '.', '.', '.'
 |  's(2)', '.', '.', '.', '.'
 |  's(2)', '.', '.', '.', '.'
 |];
program = [O('local.get_0'), O('i32.load16_s_3'), O('i32.load16_s_4'), O('i32.const_0'), O('i32.load8_u_8'), S(SET1), O('i32.sub_0'), S(SET1), NOP];
% time elapsed: 0.08 s
----------
value = 7;
fgas = [1, 1, 1, 1, 1, 1, 1, 0, 0];
fsize = [1, 1, 1, 1, 1, 1, 1, 1, 1];
states = 
[|    in_0,    '.',  '.', '.', '.', '.', '.', '.'
 |  's(4)',   in_0,  '.', '.', '.', '.', '.', '.'
 | local_0,   in_0, in_0, '.', '.', '.', '.', '.'
 |  's(0)', 's(3)', in_0, '.', '.', '.', '.', '.'
 |  's(1)',   in_0, in_0, '.', '.', '.', '.', '.'
 |  's(2)', 's(4)',  '.', '.', '.', '.', '.', '.'
 |  's(4)',    '.',  '.', '.', '.', '.', '.', '.'
 |  's(3)',    '.',  '.', '.', '.', '.', '.', '.'
 |  's(3)',    '.',  '.', '.', '.', '.', '.', '.'
 |  's(3)',    '.',  '.', '.', '.', '.', '.', '.'
 |];
register_states = 
[| local_1, '.', '.', '.', '.'
 | local_1, '.', '.', '.', '.'
 | local_1, '.', '.', '.', '.'
 | local_1, '.', '.', '.', '.'
 | local_1, '.', '.', '.', '.'
 | local_1, '.', '.', '.', '.'
 |  's(2)', '.', '.', '.', '.'
 |  's(2)', '.', '.', '.', '.'
 |  's(2)', '.', '.', '.', '.'
 |  's(2)', '.', '.', '.', '.'
 |];
program = [O('i32.const_0'), O('local.get_0'), O('i32.load16_s_3'), O('i32.load16_s_4'), O('i32.sub_0'), S(SET1), O('i32.load8_u_8'), NOP, NOP];
% time elapsed: 0.08 s
----------
==========
% time elapsed: 0.08 s
% [value > 6]
